BAYES
400
2 2 2 2 2 2 2 2 2 2 2 2 2 2 2 2 2 2 2 2 2 2 2 2 2 2 2 2 2 2 2 2 2 2 2 2 2 2 2 2 2 2 2 2 2 2 2 2 2 2 2 2 2 2 2 2 2 2 2 2 2 2 2 2 2 2 2 2 2 2 2 2 2 2 2 2 2 2 2 2 2 2 2 2 2 2 2 2 2 2 2 2 2 2 2 2 2 2 2 2 2 2 2 2 2 2 2 2 2 2 2 2 2 2 2 2 2 2 2 2 2 2 2 2 2 2 2 2 2 2 2 2 2 2 2 2 2 2 2 2 2 2 2 2 2 2 2 2 2 2 2 2 2 2 2 2 2 2 2 2 2 2 2 2 2 2 2 2 2 2 2 2 2 2 2 2 2 2 2 2 2 2 2 2 2 2 2 2 2 2 2 2 2 2 2 2 2 2 2 2 2 2 2 2 2 2 2 2 2 2 2 2 2 2 2 2 2 2 2 2 2 2 2 2 2 2 2 2 2 2 2 2 2 2 2 2 2 2 2 2 2 2 2 2 2 2 2 2 2 2 2 2 2 2 2 2 2 2 2 2 2 2 2 2 2 2 2 2 2 2 2 2 2 2 2 2 2 2 2 2 2 2 2 2 2 2 2 2 2 2 2 2 2 2 2 2 2 2 2 2 2 2 2 2 2 2 2 2 2 2 2 2 2 2 2 2 2 2 2 2 2 2 2 2 2 2 2 2 2 2 2 2 2 2 2 2 2 2 2 2 2 2 2 2 2 2 2 2 2 2 2 2 2 2 2 2 2 2 2 2 2 2 2 2 2 2 2 2 2 2 2 2 2 2 2 2 2 2 2 2 2 2 2 2 2 2 2 2 2 2 2 2 2 2 2 2 2 2 2 2
400
3 1 20 0
3 2 21 1
3 3 22 2
3 4 23 3
3 5 24 4
3 6 25 5
3 7 26 6
3 8 27 7
3 9 28 8
3 10 29 9
3 11 30 10
3 12 31 11
3 13 32 12
3 14 33 13
3 15 34 14
3 16 35 15
3 17 36 16
3 18 37 17
3 19 38 18
2 20 19
3 21 40 20
3 22 41 21
3 23 42 22
3 24 43 23
3 25 44 24
3 26 45 25
3 27 46 26
3 28 47 27
3 29 48 28
3 30 49 29
3 31 50 30
3 32 51 31
3 33 52 32
3 34 53 33
3 35 54 34
3 36 55 35
3 37 56 36
3 38 57 37
3 39 58 38
2 40 39
3 41 60 40
3 42 61 41
3 43 62 42
3 44 63 43
3 45 64 44
3 46 65 45
3 47 66 46
3 48 67 47
3 49 68 48
3 50 69 49
3 51 70 50
3 52 71 51
3 53 72 52
3 54 73 53
3 55 74 54
3 56 75 55
3 57 76 56
3 58 77 57
3 59 78 58
2 60 59
3 61 80 60
3 62 81 61
3 63 82 62
3 64 83 63
3 65 84 64
3 66 85 65
3 67 86 66
3 68 87 67
3 69 88 68
3 70 89 69
3 71 90 70
3 72 91 71
3 73 92 72
3 74 93 73
3 75 94 74
3 76 95 75
3 77 96 76
3 78 97 77
3 79 98 78
2 80 79
3 81 100 80
3 82 101 81
3 83 102 82
3 84 103 83
3 85 104 84
3 86 105 85
3 87 106 86
3 88 107 87
3 89 108 88
3 90 109 89
3 91 110 90
3 92 111 91
3 93 112 92
3 94 113 93
3 95 114 94
3 96 115 95
3 97 116 96
3 98 117 97
3 99 118 98
2 100 99
3 101 120 100
3 102 121 101
3 103 122 102
3 104 123 103
3 105 124 104
3 106 125 105
3 107 126 106
3 108 127 107
3 109 128 108
3 110 129 109
3 111 130 110
3 112 131 111
3 113 132 112
3 114 133 113
3 115 134 114
3 116 135 115
3 117 136 116
3 118 137 117
3 119 138 118
2 120 119
3 121 140 120
3 122 141 121
3 123 142 122
3 124 143 123
3 125 144 124
3 126 145 125
3 127 146 126
3 128 147 127
3 129 148 128
3 130 149 129
3 131 150 130
3 132 151 131
3 133 152 132
3 134 153 133
3 135 154 134
3 136 155 135
3 137 156 136
3 138 157 137
3 139 158 138
2 140 139
3 141 160 140
3 142 161 141
3 143 162 142
3 144 163 143
3 145 164 144
3 146 165 145
3 147 166 146
3 148 167 147
3 149 168 148
3 150 169 149
3 151 170 150
3 152 171 151
3 153 172 152
3 154 173 153
3 155 174 154
3 156 175 155
3 157 176 156
3 158 177 157
3 159 178 158
2 160 159
3 161 180 160
3 162 181 161
3 163 182 162
3 164 183 163
3 165 184 164
3 166 185 165
3 167 186 166
3 168 187 167
3 169 188 168
3 170 189 169
3 171 190 170
3 172 191 171
3 173 192 172
3 174 193 173
3 175 194 174
3 176 195 175
3 177 196 176
3 178 197 177
3 179 198 178
2 180 179
3 181 200 180
3 182 201 181
3 183 202 182
3 184 203 183
3 185 204 184
3 186 205 185
3 187 206 186
3 188 207 187
3 189 208 188
3 190 209 189
3 191 210 190
3 192 211 191
3 193 212 192
3 194 213 193
3 195 214 194
3 196 215 195
3 197 216 196
3 198 217 197
3 199 218 198
2 200 199
3 201 220 200
3 202 221 201
3 203 222 202
3 204 223 203
3 205 224 204
3 206 225 205
3 207 226 206
3 208 227 207
3 209 228 208
3 210 229 209
3 211 230 210
3 212 231 211
3 213 232 212
3 214 233 213
3 215 234 214
3 216 235 215
3 217 236 216
3 218 237 217
3 219 238 218
2 220 219
3 221 240 220
3 222 241 221
3 223 242 222
3 224 243 223
3 225 244 224
3 226 245 225
3 227 246 226
3 228 247 227
3 229 248 228
3 230 249 229
3 231 250 230
3 232 251 231
3 233 252 232
3 234 253 233
3 235 254 234
3 236 255 235
3 237 256 236
3 238 257 237
3 239 258 238
2 240 239
3 241 260 240
3 242 261 241
3 243 262 242
3 244 263 243
3 245 264 244
3 246 265 245
3 247 266 246
3 248 267 247
3 249 268 248
3 250 269 249
3 251 270 250
3 252 271 251
3 253 272 252
3 254 273 253
3 255 274 254
3 256 275 255
3 257 276 256
3 258 277 257
3 259 278 258
2 260 259
3 261 280 260
3 262 281 261
3 263 282 262
3 264 283 263
3 265 284 264
3 266 285 265
3 267 286 266
3 268 287 267
3 269 288 268
3 270 289 269
3 271 290 270
3 272 291 271
3 273 292 272
3 274 293 273
3 275 294 274
3 276 295 275
3 277 296 276
3 278 297 277
3 279 298 278
2 280 279
3 281 300 280
3 282 301 281
3 283 302 282
3 284 303 283
3 285 304 284
3 286 305 285
3 287 306 286
3 288 307 287
3 289 308 288
3 290 309 289
3 291 310 290
3 292 311 291
3 293 312 292
3 294 313 293
3 295 314 294
3 296 315 295
3 297 316 296
3 298 317 297
3 299 318 298
2 300 299
3 301 320 300
3 302 321 301
3 303 322 302
3 304 323 303
3 305 324 304
3 306 325 305
3 307 326 306
3 308 327 307
3 309 328 308
3 310 329 309
3 311 330 310
3 312 331 311
3 313 332 312
3 314 333 313
3 315 334 314
3 316 335 315
3 317 336 316
3 318 337 317
3 319 338 318
2 320 319
3 321 340 320
3 322 341 321
3 323 342 322
3 324 343 323
3 325 344 324
3 326 345 325
3 327 346 326
3 328 347 327
3 329 348 328
3 330 349 329
3 331 350 330
3 332 351 331
3 333 352 332
3 334 353 333
3 335 354 334
3 336 355 335
3 337 356 336
3 338 357 337
3 339 358 338
2 340 339
3 341 360 340
3 342 361 341
3 343 362 342
3 344 363 343
3 345 364 344
3 346 365 345
3 347 366 346
3 348 367 347
3 349 368 348
3 350 369 349
3 351 370 350
3 352 371 351
3 353 372 352
3 354 373 353
3 355 374 354
3 356 375 355
3 357 376 356
3 358 377 357
3 359 378 358
2 360 359
3 361 380 360
3 362 381 361
3 363 382 362
3 364 383 363
3 365 384 364
3 366 385 365
3 367 386 366
3 368 387 367
3 369 388 368
3 370 389 369
3 371 390 370
3 372 391 371
3 373 392 372
3 374 393 373
3 375 394 374
3 376 395 375
3 377 396 376
3 378 397 377
3 379 398 378
2 380 379
2 400 380
2 401 381
2 402 382
2 403 383
2 404 384
2 405 385
2 406 386
2 407 387
2 408 388
2 409 389
2 410 390
2 411 391
2 412 392
2 413 393
2 414 394
2 415 395
2 416 396
2 417 397
2 418 398
1  399
8
0 1 0 1 1 0 0 1
8
0.23330042974857643 0.7666995702514234 0.8459524586541819 0.15404754134581805 0.6301452612776586 0.36985473872234137 0.2578462231099997 0.7421537768900003
8
1 0 1 0 0 1 1 0
8
1 0 1 0 1 0 1 0
8
1 0 1 0 1 0 0 1
8
0.6198819112389248 0.3801180887610752 0.3793144021225529 0.6206855978774471 0.8365056992187833 0.16349430078121674 0.09092687991843258 0.9090731200815673
8
0 1 0 1 1 0 1 0
8
1 0 1 0 1 0 0 1
8
0 1 1 0 1 0 0 1
8
0 1 0 1 0 1 0 1
8
1 0 1 0 1 0 1 0
8
1 0 0 1 1 0 1 0
8
1 0 1 0 1 0 1 0
8
0 1 0 1 0 1 1 0
8
0 1 0 1 1 0 1 0
8
0.25200705507211596 0.7479929449278842 0.35720467545269485 0.6427953245473051 0.9622339363070493 0.0377660636929507 0.04291731656364772 0.9570826834363523
8
0 1 1 0 1 0 0 1
8
1 0 1 0 1 0 1 0
8
1 0 0 1 0 1 0 1
4
0 1 1 0
8
1 0 0 1 1 0 1 0
8
1 0 0 1 0 1 1 0
8
0 1 1 0 0 1 0 1
8
1 0 1 0 1 0 1 0
8
0 1 0 1 0 1 1 0
8
0 1 1 0 1 0 1 0
8
1 0 0 1 1 0 0 1
8
0 1 1 0 0 1 0 1
8
1 0 0 1 1 0 1 0
8
0 1 0 1 1 0 1 0
8
1 0 0 1 1 0 1 0
8
0 1 1 0 1 0 0 1
8
0 1 1 0 1 0 0 1
8
1 0 0 1 0 1 0 1
8
0 1 0 1 1 0 1 0
8
1 0 1 0 1 0 1 0
8
1 0 0 1 1 0 0 1
8
0 1 1 0 0 1 0 1
8
1 0 0 1 0 1 1 0
4
0 1 1 0
8
1 0 0 1 1 0 1 0
8
0 1 0 1 0 1 0 1
8
1 0 1 0 1 0 0 1
8
1 0 1 0 0 1 0 1
8
1 0 1 0 0 1 1 0
8
0.565490907981472 0.4345090920185281 0.5428522252548675 0.4571477747451326 0.8593953222625186 0.1406046777374814 0.22115890360088555 0.7788410963991145
8
1 0 0 1 1 0 1 0
8
0 1 1 0 1 0 1 0
8
1 0 0 1 1 0 1 0
8
0.610935943133921 0.38906405686607903 0.5187683079508714 0.4812316920491286 0.5036745102944377 0.4963254897055624 0.3561356644870064 0.6438643355129936
8
1 0 0 1 0 1 1 0
8
0.46559244322051424 0.5344075567794858 0.43188264053423997 0.56811735946576 0.42799661720456433 0.5720033827954356 0.5642407939782297 0.4357592060217703
8
0.4732028453700517 0.5267971546299482 0.4647202166793521 0.5352797833206479 0.031187153898460013 0.96881284610154 0.0887860549111502 0.9112139450888498
8
0 1 0 1 0 1 1 0
8
1 0 1 0 1 0 1 0
8
0.8412051706143494 0.15879482938565062 0.5984682329360738 0.40153176706392624 0.14110944510072357 0.8588905548992765 0.4054647190193159 0.5945352809806841
8
0 1 0 1 1 0 1 0
8
1 0 0 1 0 1 1 0
8
1 0 1 0 1 0 0 1
4
1 0 1 0
8
0.734166635899278 0.26583336410072195 0.963648679573381 0.036351320426619024 0.24526713176786955 0.7547328682321305 0.44923291994281134 0.5507670800571887
8
1 0 1 0 0 1 1 0
8
1 0 0 1 0 1 1 0
8
1 0 1 0 0 1 0 1
8
1 0 1 0 1 0 0 1
8
0.4318363526530778 0.5681636473469222 0.7158484370549513 0.28415156294504873 0.5054873738551119 0.49451262614488806 0.5083801326256836 0.49161986737431634
8
0 1 1 0 0 1 0 1
8
1 0 0 1 0 1 1 0
8
0 1 0 1 0 1 0 1
8
1 0 1 0 1 0 1 0
8
1 0 0 1 0 1 0 1
8
0 1 0 1 0 1 1 0
8
0 1 1 0 1 0 1 0
8
0 1 0 1 0 1 1 0
8
0 1 1 0 0 1 1 0
8
0 1 1 0 0 1 0 1
8
1 0 0 1 0 1 0 1
8
0 1 0 1 1 0 0 1
8
0 1 0 1 0 1 1 0
4
0 1 0 1
8
0 1 1 0 1 0 1 0
8
0 1 0 1 1 0 1 0
8
1 0 1 0 0 1 1 0
8
0 1 0 1 0 1 1 0
8
0 1 1 0 0 1 0 1
8
1 0 0 1 0 1 0 1
8
0 1 1 0 0 1 1 0
8
0 1 0 1 0 1 1 0
8
0 1 0 1 0 1 1 0
8
1 0 1 0 0 1 0 1
8
1 0 1 0 0 1 1 0
8
1 0 0 1 1 0 1 0
8
0 1 0 1 1 0 1 0
8
0 1 0 1 1 0 1 0
8
1 0 0 1 1 0 1 0
8
0 1 1 0 1 0 0 1
8
0 1 0 1 0 1 0 1
8
0 1 1 0 0 1 0 1
8
0 1 1 0 1 0 0 1
4
1 0 1 0
8
0 1 0 1 0 1 1 0
8
0 1 1 0 0 1 1 0
8
0 1 1 0 0 1 0 1
8
0 1 0 1 0 1 0 1
8
0.35948659363449287 0.6405134063655071 0.5953100242017652 0.40468997579823485 0.518296751008971 0.48170324899102895 0.40178080136339395 0.5982191986366061
8
1 0 0 1 1 0 0 1
8
1 0 0 1 0 1 1 0
8
1 0 0 1 0 1 1 0
8
0 1 1 0 1 0 1 0
8
0 1 0 1 1 0 1 0
8
0 1 1 0 0 1 1 0
8
0 1 1 0 1 0 0 1
8
1 0 1 0 0 1 1 0
8
0 1 1 0 1 0 1 0
8
1 0 1 0 1 0 1 0
8
0 1 1 0 0 1 0 1
8
0 1 1 0 0 1 1 0
8
0 1 1 0 0 1 1 0
8
0.027239924017862408 0.9727600759821375 0.6041494143211723 0.39585058567882786 0.2561419235755413 0.7438580764244588 0.8123572482941415 0.18764275170585856
4
1 0 0 1
8
0 1 1 0 1 0 1 0
8
0 1 0 1 1 0 0 1
8
1 0 1 0 0 1 0 1
8
0 1 0 1 1 0 0 1
8
0 1 0 1 1 0 1 0
8
0 1 0 1 1 0 0 1
8
0 1 1 0 0 1 1 0
8
1 0 0 1 1 0 0 1
8
1 0 0 1 1 0 0 1
8
1 0 1 0 1 0 0 1
8
0 1 1 0 0 1 1 0
8
1 0 0 1 1 0 0 1
8
0 1 1 0 0 1 0 1
8
0 1 1 0 0 1 1 0
8
0 1 1 0 1 0 0 1
8
1 0 1 0 1 0 1 0
8
1 0 1 0 0 1 1 0
8
1 0 0 1 0 1 1 0
8
1 0 0 1 0 1 1 0
4
1 0 0 1
8
0.8898844872429709 0.11011551275702915 0.16449165184582504 0.835508348154175 0.8013728279251936 0.19862717207480646 0.17335030899123252 0.8266496910087675
8
1 0 0 1 0 1 0 1
8
0 1 1 0 0 1 1 0
8
0.779412637653669 0.220587362346331 0.8031456699673989 0.19685433003260108 0.5502170128445094 0.4497829871554906 0.47185423028505813 0.5281457697149419
8
1 0 0 1 1 0 1 0
8
0 1 0 1 0 1 1 0
8
0 1 0 1 0 1 0 1
8
1 0 1 0 0 1 0 1
8
0.7719253743336031 0.22807462566639689 0.595939887229532 0.404060112770468 0.8096818012381306 0.1903181987618694 0.9859775060518727 0.014022493948127216
8
0 1 0 1 0 1 1 0
8
0 1 0 1 1 0 0 1
8
0.07463978611693219 0.9253602138830678 0.173708795678129 0.826291204321871 0.6862672455651894 0.3137327544348107 0.559201066198727 0.4407989338012731
8
0.652047120452403 0.34795287954759696 0.5459669064745251 0.4540330935254749 0.5426560025848679 0.4573439974151322 0.45019220696271817 0.5498077930372819
8
1 0 0 1 0 1 1 0
8
1 0 1 0 0 1 1 0
8
0 1 0 1 0 1 0 1
8
1 0 0 1 1 0 0 1
8
0 1 0 1 0 1 0 1
8
0 1 1 0 1 0 1 0
4
0 1 1 0
8
0 1 0 1 0 1 0 1
8
0 1 1 0 0 1 0 1
8
0 1 1 0 0 1 1 0
8
0 1 1 0 0 1 0 1
8
1 0 1 0 0 1 1 0
8
1 0 0 1 1 0 1 0
8
0.4123676931893307 0.5876323068106694 0.5993636537733918 0.40063634622660815 0.9244430751560132 0.07555692484398674 0.09074111544147703 0.909258884558523
8
1 0 0 1 0 1 0 1
8
0 1 0 1 1 0 0 1
8
0 1 1 0 1 0 0 1
8
1 0 0 1 1 0 1 0
8
0 1 1 0 1 0 1 0
8
0 1 0 1 0 1 0 1
8
0 1 0 1 1 0 0 1
8
0.40172592194109036 0.5982740780589096 0.5710293353552934 0.4289706646447066 0.8342069651225158 0.16579303487748429 0.4736293727319633 0.5263706272680366
8
0 1 0 1 0 1 0 1
8
0 1 1 0 0 1 1 0
8
1 0 1 0 1 0 0 1
8
0 1 1 0 1 0 0 1
4
0 1 1 0
8
1 0 1 0 1 0 1 0
8
0 1 1 0 0 1 1 0
8
0 1 0 1 1 0 0 1
8
0.6219151977731685 0.3780848022268315 0.40463154403006035 0.5953684559699397 0.7398100955576773 0.26018990444232276 0.28156315660238374 0.7184368433976163
8
0.4385829638576935 0.5614170361423065 0.635400216188954 0.3645997838110459 0.5607151072894064 0.4392848927105936 0.639876419455159 0.360123580544841
8
0 1 0 1 1 0 1 0
8
1 0 1 0 1 0 0 1
8
1 0 0 1 1 0 0 1
8
0 1 0 1 0 1 0 1
8
0.821106728479966 0.17889327152003395 0.4132107887821645 0.5867892112178354 0.1501468074023089 0.8498531925976911 0.5521578250627134 0.4478421749372865
8
0 1 1 0 0 1 1 0
8
1 0 1 0 0 1 0 1
8
0.6626887329600193 0.3373112670399807 0.3397762823419154 0.6602237176580845 0.9556048707512695 0.044395129248730486 0.4559424833681002 0.5440575166318997
8
1 0 0 1 0 1 1 0
8
0 1 1 0 1 0 0 1
8
1 0 0 1 1 0 1 0
8
0 1 0 1 0 1 1 0
8
0 1 1 0 0 1 1 0
8
1 0 1 0 0 1 0 1
4
1 0 1 0
8
1 0 1 0 1 0 0 1
8
1 0 0 1 0 1 0 1
8
1 0 1 0 1 0 0 1
8
1 0 1 0 0 1 0 1
8
1 0 0 1 0 1 0 1
8
1 0 1 0 0 1 1 0
8
1 0 1 0 0 1 1 0
8
1 0 0 1 0 1 1 0
8
0 1 1 0 0 1 0 1
8
1 0 1 0 1 0 0 1
8
0 1 0 1 0 1 0 1
8
1 0 0 1 0 1 1 0
8
1 0 1 0 1 0 0 1
8
0 1 0 1 1 0 0 1
8
1 0 0 1 1 0 1 0
8
1 0 0 1 1 0 0 1
8
0 1 0 1 0 1 1 0
8
1 0 0 1 1 0 0 1
8
0 1 1 0 1 0 0 1
4
1 0 0 1
8
1 0 1 0 1 0 1 0
8
1 0 0 1 0 1 0 1
8
1 0 0 1 0 1 0 1
8
1 0 1 0 1 0 0 1
8
0 1 1 0 1 0 1 0
8
0 1 0 1 0 1 0 1
8
1 0 0 1 1 0 0 1
8
1 0 0 1 0 1 1 0
8
1 0 1 0 1 0 0 1
8
1 0 0 1 1 0 1 0
8
0 1 1 0 0 1 0 1
8
1 0 0 1 1 0 0 1
8
1 0 0 1 1 0 1 0
8
0 1 1 0 1 0 0 1
8
0 1 0 1 0 1 0 1
8
0 1 1 0 0 1 0 1
8
0 1 0 1 0 1 0 1
8
1 0 1 0 0 1 0 1
8
1 0 1 0 0 1 1 0
4
0.9667470699801409 0.0332529300198591 0.5221810249972118 0.47781897500278814
8
0 1 0 1 0 1 0 1
8
0 1 1 0 1 0 0 1
8
0 1 0 1 0 1 1 0
8
1 0 1 0 0 1 0 1
8
1 0 0 1 0 1 1 0
8
0 1 1 0 1 0 1 0
8
1 0 0 1 0 1 0 1
8
0 1 0 1 1 0 0 1
8
0 1 0 1 0 1 1 0
8
1 0 0 1 1 0 1 0
8
0 1 1 0 0 1 0 1
8
0 1 1 0 0 1 0 1
8
0.9139967072755656 0.08600329272443442 0.4927250991417661 0.5072749008582339 0.9996119138421289 0.00038808615787107195 0.48477202236541483 0.5152279776345852
8
1 0 1 0 1 0 0 1
8
1 0 0 1 1 0 1 0
8
1 0 0 1 1 0 0 1
8
1 0 0 1 0 1 1 0
8
1 0 0 1 0 1 0 1
8
0.16770761525275887 0.8322923847472411 0.5410025975244273 0.45899740247557264 0.1976829856641704 0.8023170143358296 0.9205369032382815 0.07946309676171846
4
1 0 1 0
8
0 1 0 1 1 0 0 1
8
1 0 0 1 1 0 1 0
8
0 1 1 0 0 1 1 0
8
1 0 0 1 0 1 0 1
8
1 0 0 1 0 1 1 0
8
1 0 0 1 1 0 1 0
8
0 1 0 1 1 0 0 1
8
1 0 1 0 0 1 1 0
8
0 1 1 0 0 1 0 1
8
1 0 1 0 0 1 0 1
8
0 1 0 1 1 0 1 0
8
0 1 0 1 1 0 0 1
8
0 1 1 0 1 0 0 1
8
0 1 1 0 1 0 0 1
8
0 1 0 1 0 1 1 0
8
0 1 0 1 0 1 0 1
8
0 1 0 1 1 0 1 0
8
0 1 0 1 1 0 1 0
8
0.724579999225726 0.27542000077427414 0.42571505629994666 0.5742849437000532 0.4527605381826534 0.5472394618173465 0.3613837507457502 0.6386162492542498
4
1 0 0 1
8
0.6043375460942575 0.3956624539057425 0.8416095567905068 0.1583904432094932 0.7681717980803114 0.23182820191968861 0.8409358500397208 0.15906414996027918
8
1 0 1 0 1 0 0 1
8
0 1 0 1 0 1 1 0
8
0 1 0 1 0 1 0 1
8
0.27800282709341023 0.7219971729065898 0.6369767936594394 0.3630232063405606 0.024504857636022306 0.9754951423639777 0.9679361873927125 0.032063812607287495
8
1 0 1 0 1 0 1 0
8
1 0 0 1 1 0 0 1
8
1 0 1 0 1 0 0 1
8
0 1 1 0 1 0 1 0
8
1 0 1 0 1 0 0 1
8
0 1 0 1 0 1 1 0
8
1 0 1 0 0 1 0 1
8
0 1 0 1 0 1 0 1
8
0 1 1 0 0 1 0 1
8
1 0 0 1 0 1 0 1
8
1 0 0 1 1 0 0 1
8
0 1 1 0 0 1 1 0
8
1 0 0 1 0 1 1 0
8
1 0 0 1 1 0 0 1
4
0 1 1 0
8
1 0 0 1 0 1 0 1
8
1 0 1 0 0 1 1 0
8
1 0 0 1 1 0 0 1
8
0 1 0 1 1 0 1 0
8
0 1 0 1 0 1 0 1
8
0 1 1 0 1 0 0 1
8
0 1 0 1 1 0 1 0
8
0 1 1 0 1 0 1 0
8
1 0 0 1 0 1 0 1
8
1 0 1 0 1 0 0 1
8
0.6064919284322913 0.3935080715677088 0.5462758448165305 0.4537241551834695 0.7545726492431784 0.24542735075682176 0.463792256304871 0.536207743695129
8
1 0 0 1 0 1 0 1
8
1 0 1 0 1 0 0 1
8
0 1 0 1 0 1 0 1
8
0 1 0 1 0 1 0 1
8
0 1 1 0 1 0 0 1
8
0 1 0 1 0 1 1 0
8
0 1 0 1 0 1 1 0
8
0 1 0 1 1 0 0 1
4
0 1 0 1
8
0 1 1 0 0 1 0 1
8
1 0 0 1 1 0 0 1
8
0 1 1 0 0 1 0 1
8
0 1 0 1 0 1 0 1
8
1 0 0 1 1 0 0 1
8
0 1 1 0 1 0 1 0
8
1 0 0 1 0 1 1 0
8
0 1 1 0 1 0 1 0
8
1 0 1 0 1 0 0 1
8
0.22218289975494993 0.7778171002450501 0.23832979091077927 0.7616702090892207 0.04461886486519211 0.9553811351348079 0.6508820072345842 0.3491179927654158
8
0.33494896737855 0.66505103262145 0.22055792891730255 0.7794420710826975 0.9923885722198644 0.00761142778013557 0.7139222410142538 0.28607775898574633
8
0 1 1 0 0 1 1 0
8
0 1 0 1 0 1 0 1
8
0 1 0 1 1 0 0 1
8
0.9842846070686253 0.01571539293137473 0.4813263661789299 0.5186736338210701 0.7003029556982904 0.29969704430170957 0.7419238865994124 0.25807611340058756
8
1 0 0 1 1 0 1 0
8
0 1 1 0 1 0 1 0
8
1 0 1 0 1 0 1 0
8
0 1 1 0 0 1 0 1
4
1 0 0 1
8
0 1 0 1 0 1 0 1
8
1 0 1 0 0 1 0 1
8
1 0 0 1 0 1 1 0
8
1 0 0 1 1 0 0 1
8
1 0 0 1 0 1 1 0
8
0 1 0 1 0 1 1 0
8
0 1 0 1 0 1 0 1
8
0 1 1 0 0 1 1 0
8
0 1 0 1 0 1 0 1
8
1 0 1 0 1 0 0 1
8
1 0 1 0 0 1 1 0
8
1 0 1 0 0 1 1 0
8
0.6403799246595685 0.3596200753404315 0.5888227750758795 0.4111772249241205 0.6705111216470986 0.32948887835290136 0.5049072045421348 0.4950927954578652
8
1 0 1 0 0 1 1 0
8
1 0 1 0 1 0 0 1
8
0 1 0 1 0 1 0 1
8
1 0 1 0 0 1 1 0
8
0 1 1 0 0 1 0 1
8
0 1 1 0 1 0 0 1
4
0 1 1 0
8
0.5131302771115479 0.486869722888452 0.8322867466845896 0.1677132533154105 0.41951355384029543 0.5804864461597046 0.8015840605861624 0.19841593941383764
8
1 0 1 0 1 0 1 0
8
0 1 1 0 0 1 0 1
8
0 1 1 0 0 1 0 1
8
1 0 1 0 1 0 0 1
8
0 1 0 1 0 1 1 0
8
0 1 1 0 1 0 0 1
8
0 1 0 1 0 1 1 0
8
0 1 1 0 1 0 0 1
8
0.911044625628436 0.08895537437156403 0.20858386282919356 0.7914161371708065 0.6300920970502233 0.36990790294977666 0.5146806245621743 0.4853193754378256
8
0 1 1 0 1 0 0 1
8
1 0 1 0 0 1 0 1
8
0.9574998970159936 0.04250010298400642 0.1962968493136573 0.8037031506863427 0.9306883228650357 0.06931167713496429 0.6454381032758559 0.354561896724144
8
1 0 0 1 1 0 0 1
8
0 1 0 1 1 0 1 0
8
1 0 1 0 1 0 0 1
8
1 0 1 0 1 0 0 1
8
1 0 0 1 0 1 1 0
8
0 1 1 0 0 1 1 0
4
0 1 1 0
4
0.5646721647089411 0.43532783529105884 0.7854391520238488 0.21456084797615116
4
0 1 1 0
4
1 0 1 0
4
1 0 1 0
4
1 0 0 1
4
0 1 0 1
4
0 1 1 0
4
1 0 0 1
4
0 1 1 0
4
0 1 0 1
4
0 1 1 0
4
1 0 1 0
4
0 1 1 0
4
1 0 1 0
4
1 0 1 0
4
1 0 1 0
4
0.4191053803417535 0.5808946196582465 0.39947130669339687 0.6005286933066032
4
0.14584360817215572 0.8541563918278443 0.6283208680579712 0.3716791319420288
4
1 0 1 0
2
0 1
